p cnf 200 1110
-101 60 0
-101 24 0
-101 56 0
-101 77 0
-101 -100 0
-101 -53 0
-101 -82 0
-101 -15 0
-101 -81 0
-101 -89 0
101 -60 -24 -56 -77 100 53 82 15 81 89 0
-102 -95 0
-102 -38 0
-102 83 0
-102 -99 0
-102 21 0
-102 92 0
-102 7 0
-102 70 0
-102 -8 0
-102 6 0
102 95 38 -83 99 -21 -92 -7 -70 8 -6 0
-103 51 0
-103 31 0
-103 10 0
-103 -37 0
-103 -76 0
-103 -70 0
-103 -82 0
-103 38 0
-103 -54 0
-103 -20 0
103 -51 -31 -10 37 76 70 82 -38 54 20 0
-104 -30 0
-104 -75 0
-104 24 0
-104 -31 0
-104 -91 0
-104 50 0
-104 -35 0
-104 3 0
-104 97 0
-104 -18 0
104 30 75 -24 31 91 -50 35 -3 -97 18 0
-105 -14 0
-105 32 0
-105 41 0
-105 87 0
-105 -44 0
-105 -7 0
-105 88 0
-105 -4 0
-105 58 0
-105 60 0
105 14 -32 -41 -87 44 7 -88 4 -58 -60 0
-106 -59 0
-106 -92 0
-106 87 0
-106 -99 0
-106 -75 0
-106 -43 0
-106 72 0
-106 -17 0
-106 80 0
-106 -23 0
106 59 92 -87 99 75 43 -72 17 -80 23 0
-107 -48 0
-107 -41 0
-107 -95 0
-107 70 0
-107 23 0
-107 81 0
-107 2 0
-107 -64 0
-107 -16 0
-107 4 0
107 48 41 95 -70 -23 -81 -2 64 16 -4 0
-108 48 0
-108 -39 0
-108 53 0
-108 -83 0
-108 8 0
-108 -56 0
-108 55 0
-108 38 0
-108 -52 0
-108 45 0
108 -48 39 -53 83 -8 56 -55 -38 52 -45 0
-109 -60 0
-109 -58 0
-109 59 0
-109 -75 0
-109 46 0
-109 -42 0
-109 29 0
-109 -22 0
-109 -55 0
-109 -12 0
109 60 58 -59 75 -46 42 -29 22 55 12 0
-110 -83 0
-110 -58 0
-110 -17 0
-110 82 0
-110 46 0
-110 -14 0
-110 28 0
-110 71 0
-110 98 0
-110 -72 0
110 83 58 17 -82 -46 14 -28 -71 -98 72 0
101 102 103 104 105 106 107 108 109 110 0
-111 89 0
-111 81 0
-111 -15 0
-111 -2 0
-111 -58 0
-111 -78 0
-111 5 0
-111 38 0
-111 -98 0
-111 83 0
111 -89 -81 15 2 58 78 -5 -38 98 -83 0
-112 -72 0
-112 6 0
-112 36 0
-112 91 0
-112 -44 0
-112 32 0
-112 25 0
-112 -93 0
-112 -83 0
-112 4 0
112 72 -6 -36 -91 44 -32 -25 93 83 -4 0
-113 -19 0
-113 -79 0
-113 29 0
-113 -69 0
-113 28 0
-113 62 0
-113 -63 0
-113 -18 0
-113 -89 0
-113 -26 0
113 19 79 -29 69 -28 -62 63 18 89 26 0
-114 -57 0
-114 96 0
-114 60 0
-114 -41 0
-114 -77 0
-114 32 0
-114 65 0
-114 -21 0
-114 -91 0
-114 -11 0
114 57 -96 -60 41 77 -32 -65 21 91 11 0
-115 14 0
-115 39 0
-115 69 0
-115 27 0
-115 -40 0
-115 64 0
-115 11 0
-115 -41 0
-115 -56 0
-115 -68 0
115 -14 -39 -69 -27 40 -64 -11 41 56 68 0
-116 -53 0
-116 -74 0
-116 -47 0
-116 91 0
-116 -93 0
-116 100 0
-116 -23 0
-116 19 0
-116 4 0
-116 -28 0
116 53 74 47 -91 93 -100 23 -19 -4 28 0
-117 -42 0
-117 -85 0
-117 98 0
-117 -39 0
-117 82 0
-117 60 0
-117 76 0
-117 -31 0
-117 58 0
-117 -79 0
117 42 85 -98 39 -82 -60 -76 31 -58 79 0
-118 50 0
-118 81 0
-118 93 0
-118 -8 0
-118 -55 0
-118 -98 0
-118 -59 0
-118 49 0
-118 6 0
-118 79 0
118 -50 -81 -93 8 55 98 59 -49 -6 -79 0
-119 -85 0
-119 72 0
-119 60 0
-119 35 0
-119 93 0
-119 -80 0
-119 -62 0
-119 49 0
-119 -41 0
-119 87 0
119 85 -72 -60 -35 -93 80 62 -49 41 -87 0
-120 10 0
-120 -92 0
-120 66 0
-120 31 0
-120 7 0
-120 -81 0
-120 -99 0
-120 -27 0
-120 -83 0
-120 97 0
120 -10 92 -66 -31 -7 81 99 27 83 -97 0
111 112 113 114 115 116 117 118 119 120 0
-121 -90 0
-121 82 0
-121 27 0
-121 -51 0
-121 13 0
-121 -80 0
-121 11 0
-121 31 0
-121 88 0
-121 -16 0
121 90 -82 -27 51 -13 80 -11 -31 -88 16 0
-122 -21 0
-122 10 0
-122 49 0
-122 14 0
-122 26 0
-122 -1 0
-122 -43 0
-122 -38 0
-122 67 0
-122 19 0
122 21 -10 -49 -14 -26 1 43 38 -67 -19 0
-123 -94 0
-123 -82 0
-123 -45 0
-123 76 0
-123 -64 0
-123 -96 0
-123 -25 0
-123 -5 0
-123 36 0
-123 -99 0
123 94 82 45 -76 64 96 25 5 -36 99 0
-124 95 0
-124 -29 0
-124 -55 0
-124 -73 0
-124 60 0
-124 -75 0
-124 94 0
-124 -24 0
-124 -26 0
-124 39 0
124 -95 29 55 73 -60 75 -94 24 26 -39 0
-125 -57 0
-125 -6 0
-125 -96 0
-125 84 0
-125 64 0
-125 66 0
-125 -36 0
-125 44 0
-125 62 0
-125 75 0
125 57 6 96 -84 -64 -66 36 -44 -62 -75 0
-126 38 0
-126 17 0
-126 -83 0
-126 97 0
-126 52 0
-126 16 0
-126 -51 0
-126 29 0
-126 58 0
-126 42 0
126 -38 -17 83 -97 -52 -16 51 -29 -58 -42 0
-127 46 0
-127 -47 0
-127 -77 0
-127 -37 0
-127 67 0
-127 11 0
-127 -45 0
-127 -53 0
-127 -91 0
-127 87 0
127 -46 47 77 37 -67 -11 45 53 91 -87 0
-128 25 0
-128 -16 0
-128 97 0
-128 17 0
-128 -19 0
-128 -92 0
-128 41 0
-128 86 0
-128 46 0
-128 1 0
128 -25 16 -97 -17 19 92 -41 -86 -46 -1 0
-129 63 0
-129 -31 0
-129 -94 0
-129 65 0
-129 23 0
-129 24 0
-129 -96 0
-129 -26 0
-129 -36 0
-129 25 0
129 -63 31 94 -65 -23 -24 96 26 36 -25 0
-130 48 0
-130 -85 0
-130 -26 0
-130 -71 0
-130 40 0
-130 14 0
-130 -21 0
-130 65 0
-130 -11 0
-130 -92 0
130 -48 85 26 71 -40 -14 21 -65 11 92 0
121 122 123 124 125 126 127 128 129 130 0
-131 -17 0
-131 49 0
-131 -81 0
-131 -97 0
-131 39 0
-131 8 0
-131 -23 0
-131 80 0
-131 -77 0
-131 12 0
131 17 -49 81 97 -39 -8 23 -80 77 -12 0
-132 71 0
-132 -25 0
-132 40 0
-132 87 0
-132 38 0
-132 -3 0
-132 -59 0
-132 -91 0
-132 65 0
-132 -94 0
132 -71 25 -40 -87 -38 3 59 91 -65 94 0
-133 -23 0
-133 22 0
-133 -92 0
-133 -24 0
-133 94 0
-133 -39 0
-133 -91 0
-133 54 0
-133 14 0
-133 52 0
133 23 -22 92 24 -94 39 91 -54 -14 -52 0
-134 93 0
-134 98 0
-134 -64 0
-134 -16 0
-134 41 0
-134 -56 0
-134 -59 0
-134 100 0
-134 -6 0
-134 -47 0
134 -93 -98 64 16 -41 56 59 -100 6 47 0
-135 -56 0
-135 92 0
-135 82 0
-135 -78 0
-135 -17 0
-135 32 0
-135 -60 0
-135 41 0
-135 72 0
-135 12 0
135 56 -92 -82 78 17 -32 60 -41 -72 -12 0
-136 72 0
-136 84 0
-136 2 0
-136 54 0
-136 -94 0
-136 -4 0
-136 87 0
-136 -13 0
-136 -24 0
-136 -82 0
136 -72 -84 -2 -54 94 4 -87 13 24 82 0
-137 46 0
-137 -97 0
-137 15 0
-137 5 0
-137 -18 0
-137 -67 0
-137 87 0
-137 60 0
-137 69 0
-137 -28 0
137 -46 97 -15 -5 18 67 -87 -60 -69 28 0
-138 21 0
-138 -91 0
-138 -26 0
-138 -3 0
-138 -42 0
-138 85 0
-138 4 0
-138 -25 0
-138 54 0
-138 -57 0
138 -21 91 26 3 42 -85 -4 25 -54 57 0
-139 -47 0
-139 -29 0
-139 71 0
-139 11 0
-139 -60 0
-139 54 0
-139 -38 0
-139 65 0
-139 17 0
-139 30 0
139 47 29 -71 -11 60 -54 38 -65 -17 -30 0
-140 10 0
-140 4 0
-140 -60 0
-140 -2 0
-140 -90 0
-140 -41 0
-140 -19 0
-140 -14 0
-140 81 0
-140 -34 0
140 -10 -4 60 2 90 41 19 14 -81 34 0
131 132 133 134 135 136 137 138 139 140 0
-141 -45 0
-141 30 0
-141 -33 0
-141 23 0
-141 80 0
-141 2 0
-141 -85 0
-141 -98 0
-141 -9 0
-141 -63 0
141 45 -30 33 -23 -80 -2 85 98 9 63 0
-142 3 0
-142 -1 0
-142 -82 0
-142 -53 0
-142 -48 0
-142 93 0
-142 33 0
-142 4 0
-142 84 0
-142 56 0
142 -3 1 82 53 48 -93 -33 -4 -84 -56 0
-143 14 0
-143 69 0
-143 -89 0
-143 51 0
-143 -17 0
-143 87 0
-143 -95 0
-143 99 0
-143 -42 0
-143 -48 0
143 -14 -69 89 -51 17 -87 95 -99 42 48 0
-144 -80 0
-144 86 0
-144 89 0
-144 55 0
-144 -83 0
-144 92 0
-144 85 0
-144 -81 0
-144 -46 0
-144 -36 0
144 80 -86 -89 -55 83 -92 -85 81 46 36 0
-145 43 0
-145 -90 0
-145 -49 0
-145 -46 0
-145 74 0
-145 -3 0
-145 26 0
-145 28 0
-145 -17 0
-145 -19 0
145 -43 90 49 46 -74 3 -26 -28 17 19 0
-146 100 0
-146 -31 0
-146 22 0
-146 -23 0
-146 6 0
-146 97 0
-146 -83 0
-146 -80 0
-146 43 0
-146 -19 0
146 -100 31 -22 23 -6 -97 83 80 -43 19 0
-147 1 0
-147 -33 0
-147 70 0
-147 -42 0
-147 31 0
-147 -59 0
-147 45 0
-147 46 0
-147 -13 0
-147 -71 0
147 -1 33 -70 42 -31 59 -45 -46 13 71 0
-148 35 0
-148 47 0
-148 -26 0
-148 -60 0
-148 -59 0
-148 -13 0
-148 28 0
-148 88 0
-148 64 0
-148 9 0
148 -35 -47 26 60 59 13 -28 -88 -64 -9 0
-149 -49 0
-149 89 0
-149 -1 0
-149 -33 0
-149 13 0
-149 -17 0
-149 -31 0
-149 26 0
-149 76 0
-149 44 0
149 49 -89 1 33 -13 17 31 -26 -76 -44 0
-150 96 0
-150 84 0
-150 -83 0
-150 18 0
-150 -56 0
-150 63 0
-150 15 0
-150 12 0
-150 3 0
-150 22 0
150 -96 -84 83 -18 56 -63 -15 -12 -3 -22 0
141 142 143 144 145 146 147 148 149 150 0
-151 50 0
-151 78 0
-151 -57 0
-151 72 0
-151 -48 0
-151 19 0
-151 -15 0
-151 61 0
-151 -29 0
-151 97 0
151 -50 -78 57 -72 48 -19 15 -61 29 -97 0
-152 82 0
-152 11 0
-152 -77 0
-152 51 0
-152 85 0
-152 -78 0
-152 -52 0
-152 59 0
-152 -31 0
-152 -99 0
152 -82 -11 77 -51 -85 78 52 -59 31 99 0
-153 -92 0
-153 -24 0
-153 29 0
-153 -76 0
-153 -75 0
-153 -71 0
-153 -17 0
-153 43 0
-153 40 0
-153 -77 0
153 92 24 -29 76 75 71 17 -43 -40 77 0
-154 -43 0
-154 72 0
-154 66 0
-154 -36 0
-154 -76 0
-154 97 0
-154 50 0
-154 -27 0
-154 -4 0
-154 -60 0
154 43 -72 -66 36 76 -97 -50 27 4 60 0
-155 -43 0
-155 85 0
-155 41 0
-155 13 0
-155 38 0
-155 -2 0
-155 -99 0
-155 -18 0
-155 29 0
-155 -31 0
155 43 -85 -41 -13 -38 2 99 18 -29 31 0
-156 -43 0
-156 -79 0
-156 94 0
-156 68 0
-156 7 0
-156 -16 0
-156 38 0
-156 -1 0
-156 6 0
-156 92 0
156 43 79 -94 -68 -7 16 -38 1 -6 -92 0
-157 -100 0
-157 -19 0
-157 -74 0
-157 65 0
-157 -69 0
-157 86 0
-157 -67 0
-157 61 0
-157 -91 0
-157 -79 0
157 100 19 74 -65 69 -86 67 -61 91 79 0
-158 26 0
-158 -88 0
-158 68 0
-158 24 0
-158 72 0
-158 -76 0
-158 97 0
-158 -44 0
-158 14 0
-158 3 0
158 -26 88 -68 -24 -72 76 -97 44 -14 -3 0
-159 -22 0
-159 26 0
-159 61 0
-159 -1 0
-159 -74 0
-159 11 0
-159 65 0
-159 -85 0
-159 84 0
-159 -42 0
159 22 -26 -61 1 74 -11 -65 85 -84 42 0
-160 71 0
-160 26 0
-160 67 0
-160 97 0
-160 -53 0
-160 92 0
-160 -59 0
-160 -47 0
-160 14 0
-160 -78 0
160 -71 -26 -67 -97 53 -92 59 47 -14 78 0
151 152 153 154 155 156 157 158 159 160 0
-161 -17 0
-161 -41 0
-161 -50 0
-161 46 0
-161 -54 0
-161 -11 0
-161 -14 0
-161 66 0
-161 72 0
-161 68 0
161 17 41 50 -46 54 11 14 -66 -72 -68 0
-162 98 0
-162 57 0
-162 65 0
-162 78 0
-162 66 0
-162 81 0
-162 36 0
-162 -48 0
-162 -32 0
-162 -47 0
162 -98 -57 -65 -78 -66 -81 -36 48 32 47 0
-163 -25 0
-163 -68 0
-163 -14 0
-163 84 0
-163 75 0
-163 -45 0
-163 21 0
-163 -42 0
-163 7 0
-163 64 0
163 25 68 14 -84 -75 45 -21 42 -7 -64 0
-164 38 0
-164 -87 0
-164 -76 0
-164 52 0
-164 -68 0
-164 -31 0
-164 26 0
-164 -7 0
-164 43 0
-164 71 0
164 -38 87 76 -52 68 31 -26 7 -43 -71 0
-165 -64 0
-165 -5 0
-165 45 0
-165 42 0
-165 -4 0
-165 -1 0
-165 -12 0
-165 8 0
-165 24 0
-165 -17 0
165 64 5 -45 -42 4 1 12 -8 -24 17 0
-166 76 0
-166 18 0
-166 44 0
-166 -61 0
-166 -56 0
-166 -79 0
-166 -8 0
-166 88 0
-166 70 0
-166 30 0
166 -76 -18 -44 61 56 79 8 -88 -70 -30 0
-167 21 0
-167 75 0
-167 52 0
-167 -55 0
-167 48 0
-167 71 0
-167 99 0
-167 -73 0
-167 -64 0
-167 -60 0
167 -21 -75 -52 55 -48 -71 -99 73 64 60 0
-168 93 0
-168 98 0
-168 87 0
-168 -17 0
-168 64 0
-168 40 0
-168 -25 0
-168 5 0
-168 47 0
-168 -24 0
168 -93 -98 -87 17 -64 -40 25 -5 -47 24 0
-169 -82 0
-169 -57 0
-169 54 0
-169 19 0
-169 -30 0
-169 -41 0
-169 -46 0
-169 7 0
-169 8 0
-169 -6 0
169 82 57 -54 -19 30 41 46 -7 -8 6 0
-170 -75 0
-170 8 0
-170 65 0
-170 58 0
-170 48 0
-170 -4 0
-170 92 0
-170 57 0
-170 11 0
-170 -45 0
170 75 -8 -65 -58 -48 4 -92 -57 -11 45 0
161 162 163 164 165 166 167 168 169 170 0
-171 29 0
-171 -98 0
-171 -42 0
-171 -14 0
-171 -33 0
-171 5 0
-171 56 0
-171 75 0
-171 -12 0
-171 -53 0
171 -29 98 42 14 33 -5 -56 -75 12 53 0
-172 -66 0
-172 97 0
-172 41 0
-172 -22 0
-172 -54 0
-172 77 0
-172 8 0
-172 3 0
-172 70 0
-172 -89 0
172 66 -97 -41 22 54 -77 -8 -3 -70 89 0
-173 -8 0
-173 -6 0
-173 -35 0
-173 -17 0
-173 30 0
-173 51 0
-173 18 0
-173 11 0
-173 48 0
-173 -49 0
173 8 6 35 17 -30 -51 -18 -11 -48 49 0
-174 -66 0
-174 45 0
-174 13 0
-174 51 0
-174 55 0
-174 -36 0
-174 73 0
-174 -10 0
-174 79 0
-174 28 0
174 66 -45 -13 -51 -55 36 -73 10 -79 -28 0
-175 -19 0
-175 -57 0
-175 -16 0
-175 68 0
-175 -56 0
-175 18 0
-175 -86 0
-175 12 0
-175 3 0
-175 52 0
175 19 57 16 -68 56 -18 86 -12 -3 -52 0
-176 19 0
-176 71 0
-176 97 0
-176 -37 0
-176 -68 0
-176 -48 0
-176 12 0
-176 -54 0
-176 -56 0
-176 7 0
176 -19 -71 -97 37 68 48 -12 54 56 -7 0
-177 -13 0
-177 96 0
-177 -85 0
-177 99 0
-177 43 0
-177 31 0
-177 -64 0
-177 -39 0
-177 -28 0
-177 -23 0
177 13 -96 85 -99 -43 -31 64 39 28 23 0
-178 2 0
-178 26 0
-178 -28 0
-178 4 0
-178 19 0
-178 -65 0
-178 -71 0
-178 -11 0
-178 -75 0
-178 -69 0
178 -2 -26 28 -4 -19 65 71 11 75 69 0
-179 -13 0
-179 -76 0
-179 -26 0
-179 63 0
-179 65 0
-179 -11 0
-179 -57 0
-179 -14 0
-179 -100 0
-179 -2 0
179 13 76 26 -63 -65 11 57 14 100 2 0
-180 15 0
-180 -92 0
-180 21 0
-180 86 0
-180 13 0
-180 -79 0
-180 72 0
-180 71 0
-180 -67 0
-180 16 0
180 -15 92 -21 -86 -13 79 -72 -71 67 -16 0
171 172 173 174 175 176 177 178 179 180 0
-181 12 0
-181 -11 0
-181 70 0
-181 -10 0
-181 7 0
-181 15 0
-181 78 0
-181 84 0
-181 -54 0
-181 5 0
181 -12 11 -70 10 -7 -15 -78 -84 54 -5 0
-182 68 0
-182 49 0
-182 65 0
-182 60 0
-182 -28 0
-182 83 0
-182 -12 0
-182 -56 0
-182 -27 0
-182 -51 0
182 -68 -49 -65 -60 28 -83 12 56 27 51 0
-183 -6 0
-183 -88 0
-183 -13 0
-183 -46 0
-183 -23 0
-183 73 0
-183 65 0
-183 42 0
-183 -72 0
-183 -41 0
183 6 88 13 46 23 -73 -65 -42 72 41 0
-184 57 0
-184 63 0
-184 96 0
-184 -21 0
-184 12 0
-184 -100 0
-184 -78 0
-184 32 0
-184 -13 0
-184 97 0
184 -57 -63 -96 21 -12 100 78 -32 13 -97 0
-185 23 0
-185 49 0
-185 55 0
-185 -44 0
-185 95 0
-185 -64 0
-185 -36 0
-185 38 0
-185 8 0
-185 67 0
185 -23 -49 -55 44 -95 64 36 -38 -8 -67 0
-186 -64 0
-186 28 0
-186 -60 0
-186 53 0
-186 57 0
-186 -68 0
-186 -30 0
-186 -51 0
-186 10 0
-186 -99 0
186 64 -28 60 -53 -57 68 30 51 -10 99 0
-187 -25 0
-187 -76 0
-187 -1 0
-187 -98 0
-187 29 0
-187 6 0
-187 -19 0
-187 79 0
-187 80 0
-187 93 0
187 25 76 1 98 -29 -6 19 -79 -80 -93 0
-188 73 0
-188 -4 0
-188 71 0
-188 28 0
-188 -18 0
-188 -52 0
-188 55 0
-188 -36 0
-188 -13 0
-188 -78 0
188 -73 4 -71 -28 18 52 -55 36 13 78 0
-189 -71 0
-189 -98 0
-189 -57 0
-189 -70 0
-189 45 0
-189 86 0
-189 73 0
-189 91 0
-189 -66 0
-189 -75 0
189 71 98 57 70 -45 -86 -73 -91 66 75 0
-190 -51 0
-190 -10 0
-190 4 0
-190 -64 0
-190 -38 0
-190 91 0
-190 -86 0
-190 67 0
-190 34 0
-190 76 0
190 51 10 -4 64 38 -91 86 -67 -34 -76 0
181 182 183 184 185 186 187 188 189 190 0
-191 -15 0
-191 -80 0
-191 90 0
-191 22 0
-191 -52 0
-191 51 0
-191 32 0
-191 61 0
-191 6 0
-191 60 0
191 15 80 -90 -22 52 -51 -32 -61 -6 -60 0
-192 -18 0
-192 -39 0
-192 25 0
-192 65 0
-192 36 0
-192 -82 0
-192 14 0
-192 -60 0
-192 -43 0
-192 6 0
192 18 39 -25 -65 -36 82 -14 60 43 -6 0
-193 -58 0
-193 -8 0
-193 -11 0
-193 21 0
-193 -28 0
-193 -30 0
-193 -39 0
-193 -48 0
-193 -38 0
-193 86 0
193 58 8 11 -21 28 30 39 48 38 -86 0
-194 82 0
-194 17 0
-194 20 0
-194 -53 0
-194 45 0
-194 -61 0
-194 66 0
-194 6 0
-194 -94 0
-194 56 0
194 -82 -17 -20 53 -45 61 -66 -6 94 -56 0
-195 -84 0
-195 83 0
-195 60 0
-195 -65 0
-195 -37 0
-195 -82 0
-195 -81 0
-195 29 0
-195 -78 0
-195 -74 0
195 84 -83 -60 65 37 82 81 -29 78 74 0
-196 34 0
-196 50 0
-196 18 0
-196 1 0
-196 -83 0
-196 -11 0
-196 46 0
-196 -61 0
-196 62 0
-196 95 0
196 -34 -50 -18 -1 83 11 -46 61 -62 -95 0
-197 63 0
-197 53 0
-197 58 0
-197 -67 0
-197 -80 0
-197 98 0
-197 85 0
-197 17 0
-197 -47 0
-197 -24 0
197 -63 -53 -58 67 80 -98 -85 -17 47 24 0
-198 84 0
-198 33 0
-198 81 0
-198 89 0
-198 99 0
-198 -65 0
-198 52 0
-198 -90 0
-198 80 0
-198 -46 0
198 -84 -33 -81 -89 -99 65 -52 90 -80 46 0
-199 -6 0
-199 -35 0
-199 42 0
-199 51 0
-199 -61 0
-199 41 0
-199 -64 0
-199 -94 0
-199 14 0
-199 78 0
199 6 35 -42 -51 61 -41 64 94 -14 -78 0
-200 21 0
-200 96 0
-200 72 0
-200 -51 0
-200 -74 0
-200 19 0
-200 -55 0
-200 -87 0
-200 -62 0
-200 -7 0
200 -21 -96 -72 51 74 -19 55 87 62 7 0
191 192 193 194 195 196 197 198 199 200 0
